HUN,8,6,229
1,6,2,4,5,4,0,21,4,6,3,6
0,24,1,7,5,1,2,3,3,11,4,30
0,16,2,14,4,27,5,7,3,23,1,14
0,4,1,21,2,28,3,30,4,23,5,25
3,29,0,13,4,16,1,23,5,17,2,30
1,22,3,17,0,15,5,9,4,16,2,8
3,11,0,1,4,8,2,9,5,16,1,19
4,8,1,29,5,2,3,8,0,16,2,25
